WARNING: for repeatability, setting FPU to use double precision
============================[ Problem Statistics ]=============================
|                                                                             |
|  Number of variables:            50                                         |
|  Number of clauses:             218                                         |
|  Parse time:                   0.00 s                                       |
|                                                                             |
============================[ Search Statistics ]==============================
| Conflicts |          ORIGINAL         |          LEARNT          | Progress |
|           |    Vars  Clauses Literals |    Limit  Clauses Lit/Cl |          |
===============================================================================
===============================================================================
restarts              : 1
conflicts             : 44             (30261 /sec)
decisions             : 53             (0.00 % random) (36451 /sec)
propagations          : 670            (460798 /sec)
conflict literals     : 161            (13.90 % deleted)
Memory used           : 20.00 MB
CPU time              : 0.001454 s

UNSATISFIABLE
